k = 16;
b = 8;
AtomicConstraints =  [|
14, 16|
	14, 15|
	10, 16|
	10, 14|
	10, 15|
	10, 13|
	15, 8|
	13, 8|
	13, 16|
	13, 15|
	13, 12|
	9, 8|
	9, 16|
	9, 14|
	9, 15|
	9, 13|
	9, 12|
	9, 11|
	12, 7|
	12, 8|
	11, 7|
	11, 8|
	11, 15|
	11, 12|];
DisjunctiveConstraints =  [|15, 8, 16, 15|
	15, 12, 15, 16|
	13, 8, 16, 13|
	13, 11, 13, 14|
	12, 7, 15, 12|
	12, 8, 12, 16|
	11, 7, 15, 11|
	11, 8, 11, 16|];
SoftAtomicConstraints =  [|
1, 2|
2, 3|
3, 4|
4, 5|
5, 6|
6, 7|
7, 8|
9, 10|
11, 13|
13, 14|
12, 15|
15, 16|];
DirectSuccessors =  [];
